num_offers = 20;
num_halls = 10;
start=[44,31,4,58,12,10,13,17,41,12,68,61,11,28,31,21,13,17,85,15];
end=[59,100,24,100,99,72,81,92,53,38,96,92,89,52,53,72,89,33,92,60];
price=[394,5201,689,2912,8056,4726,3868,7171,253,603,2884,3072,4431,910,1907,3658,4571,642,712,3360];
requirement=[317,465,657,455,440,810,228,438,209,350,661,517,264,973,538,358,814,362,919,279];
capacity=[559,781,995,564,819,947,713,660,851,934];
